(set-info :smt-lib-version 2.6)
(set-logic QF_NIA)
(set-info :source |
Generated by: Cristina Borralleras, Daniel Larraz, Albert Oliveras, Enric Rodriguez-Carbonell, Albert Rubio
Generated on: 2017-04-27
Generator: VeryMax
Application: Termination proving
Target solver: barcelogic
|)
(set-info :license "https://creativecommons.org/licenses/by/4.0/")
(set-info :category "industrial")
(set-info :status sat)
(declare-fun Nl10a_173^01 () Int)
(declare-fun Nl10h_31^01 () Int)
(declare-fun Nl10i_211^01 () Int)
(declare-fun Nl10i_29^01 () Int)
(declare-fun Nl10i_344^01 () Int)
(declare-fun Nl10l_157^01 () Int)
(declare-fun Nl10l_28^01 () Int)
(declare-fun Nl10rv_13^01 () Int)
(declare-fun Nl10tp_34^01 () Int)
(declare-fun Nl10a_173^02 () Int)
(declare-fun Nl10h_31^02 () Int)
(declare-fun Nl10i_211^02 () Int)
(declare-fun Nl10i_29^02 () Int)
(declare-fun Nl10i_344^02 () Int)
(declare-fun Nl10l_157^02 () Int)
(declare-fun Nl10l_28^02 () Int)
(declare-fun Nl10rv_13^02 () Int)
(declare-fun Nl10tp_34^02 () Int)
(declare-fun Nl10a_173^03 () Int)
(declare-fun Nl10h_31^03 () Int)
(declare-fun Nl10i_211^03 () Int)
(declare-fun Nl10i_29^03 () Int)
(declare-fun Nl10i_344^03 () Int)
(declare-fun Nl10l_157^03 () Int)
(declare-fun Nl10l_28^03 () Int)
(declare-fun Nl10rv_13^03 () Int)
(declare-fun Nl10tp_34^03 () Int)
(declare-fun lam0n0 () Int)
(declare-fun lam0n1 () Int)
(declare-fun lam0n2 () Int)
(declare-fun lam0n3 () Int)
(declare-fun lam0n4 () Int)
(declare-fun lam0n5 () Int)
(declare-fun lam0n6 () Int)
(declare-fun lam0n7 () Int)
(declare-fun lam0n8 () Int)
(declare-fun lam0n9 () Int)
(declare-fun lam0n18 () Int)
(declare-fun lam0n19 () Int)
(declare-fun lam0n20 () Int)
(declare-fun Nl10CT1 () Int)
(declare-fun Nl10CT2 () Int)
(declare-fun Nl10CT3 () Int)
(declare-fun lam0n10 () Int)
(declare-fun lam0n11 () Int)
(declare-fun lam0n12 () Int)
(declare-fun lam0n13 () Int)
(declare-fun lam0n14 () Int)
(declare-fun lam0n15 () Int)
(declare-fun lam0n16 () Int)
(declare-fun lam0n17 () Int)
(declare-fun lam1n0 () Int)
(declare-fun lam1n1 () Int)
(declare-fun lam1n2 () Int)
(declare-fun lam1n3 () Int)
(declare-fun lam1n4 () Int)
(declare-fun lam1n5 () Int)
(declare-fun lam1n6 () Int)
(declare-fun lam1n7 () Int)
(declare-fun lam1n8 () Int)
(declare-fun lam1n9 () Int)
(declare-fun lam1n18 () Int)
(declare-fun lam1n19 () Int)
(declare-fun lam1n20 () Int)
(declare-fun lam1n10 () Int)
(declare-fun lam1n11 () Int)
(declare-fun lam1n12 () Int)
(declare-fun lam1n13 () Int)
(declare-fun lam1n14 () Int)
(declare-fun lam1n15 () Int)
(declare-fun lam1n16 () Int)
(declare-fun lam1n17 () Int)
(declare-fun lam2n0 () Int)
(declare-fun lam2n1 () Int)
(declare-fun lam2n2 () Int)
(declare-fun lam2n3 () Int)
(declare-fun lam2n4 () Int)
(declare-fun lam2n5 () Int)
(declare-fun lam2n6 () Int)
(declare-fun lam2n7 () Int)
(declare-fun lam2n8 () Int)
(declare-fun lam2n9 () Int)
(declare-fun lam2n18 () Int)
(declare-fun lam2n19 () Int)
(declare-fun lam2n20 () Int)
(declare-fun lam2n10 () Int)
(declare-fun lam2n11 () Int)
(declare-fun lam2n12 () Int)
(declare-fun lam2n13 () Int)
(declare-fun lam2n14 () Int)
(declare-fun lam2n15 () Int)
(declare-fun lam2n16 () Int)
(declare-fun lam2n17 () Int)
(declare-fun lam3n0 () Int)
(declare-fun lam3n1 () Int)
(declare-fun lam3n2 () Int)
(declare-fun lam3n3 () Int)
(declare-fun lam3n4 () Int)
(declare-fun lam3n5 () Int)
(declare-fun lam3n6 () Int)
(declare-fun lam3n7 () Int)
(declare-fun lam3n8 () Int)
(declare-fun lam3n9 () Int)
(declare-fun lam3n18 () Int)
(declare-fun lam3n19 () Int)
(declare-fun lam3n20 () Int)
(declare-fun lam3n10 () Int)
(declare-fun lam3n11 () Int)
(declare-fun lam3n12 () Int)
(declare-fun lam3n13 () Int)
(declare-fun lam3n14 () Int)
(declare-fun lam3n15 () Int)
(declare-fun lam3n16 () Int)
(declare-fun lam3n17 () Int)
(declare-fun lam4n0 () Int)
(declare-fun lam4n1 () Int)
(declare-fun lam4n2 () Int)
(declare-fun lam4n3 () Int)
(declare-fun lam4n4 () Int)
(declare-fun lam4n5 () Int)
(declare-fun lam4n6 () Int)
(declare-fun lam4n7 () Int)
(declare-fun lam4n8 () Int)
(declare-fun lam4n9 () Int)
(declare-fun lam4n29 () Int)
(declare-fun lam4n30 () Int)
(declare-fun lam4n31 () Int)
(declare-fun lam4n32 () Int)
(declare-fun lam4n10 () Int)
(declare-fun lam4n11 () Int)
(declare-fun lam4n12 () Int)
(declare-fun lam4n13 () Int)
(declare-fun lam4n14 () Int)
(declare-fun lam4n15 () Int)
(declare-fun lam4n16 () Int)
(declare-fun lam4n17 () Int)
(declare-fun lam4n18 () Int)
(declare-fun lam4n19 () Int)
(declare-fun lam4n20 () Int)
(declare-fun lam4n21 () Int)
(declare-fun lam4n22 () Int)
(declare-fun lam4n23 () Int)
(declare-fun lam4n24 () Int)
(declare-fun lam4n25 () Int)
(declare-fun lam4n26 () Int)
(declare-fun lam4n27 () Int)
(declare-fun lam4n28 () Int)
(declare-fun lam5n0 () Int)
(declare-fun lam5n1 () Int)
(declare-fun lam5n2 () Int)
(declare-fun lam5n3 () Int)
(declare-fun lam5n4 () Int)
(declare-fun lam5n5 () Int)
(declare-fun lam5n6 () Int)
(declare-fun lam5n7 () Int)
(declare-fun lam5n8 () Int)
(declare-fun lam5n9 () Int)
(declare-fun lam5n29 () Int)
(declare-fun lam5n30 () Int)
(declare-fun lam5n31 () Int)
(declare-fun lam5n32 () Int)
(declare-fun lam5n10 () Int)
(declare-fun lam5n11 () Int)
(declare-fun lam5n12 () Int)
(declare-fun lam5n13 () Int)
(declare-fun lam5n14 () Int)
(declare-fun lam5n15 () Int)
(declare-fun lam5n16 () Int)
(declare-fun lam5n17 () Int)
(declare-fun lam5n18 () Int)
(declare-fun lam5n19 () Int)
(declare-fun lam5n20 () Int)
(declare-fun lam5n21 () Int)
(declare-fun lam5n22 () Int)
(declare-fun lam5n23 () Int)
(declare-fun lam5n24 () Int)
(declare-fun lam5n25 () Int)
(declare-fun lam5n26 () Int)
(declare-fun lam5n27 () Int)
(declare-fun lam5n28 () Int)
(declare-fun lam6n0 () Int)
(declare-fun lam6n1 () Int)
(declare-fun lam6n2 () Int)
(declare-fun lam6n3 () Int)
(declare-fun lam6n4 () Int)
(declare-fun lam6n5 () Int)
(declare-fun lam6n6 () Int)
(declare-fun lam6n7 () Int)
(declare-fun lam6n8 () Int)
(declare-fun lam6n9 () Int)
(declare-fun lam6n29 () Int)
(declare-fun lam6n30 () Int)
(declare-fun lam6n31 () Int)
(declare-fun lam6n32 () Int)
(declare-fun lam6n10 () Int)
(declare-fun lam6n11 () Int)
(declare-fun lam6n12 () Int)
(declare-fun lam6n13 () Int)
(declare-fun lam6n14 () Int)
(declare-fun lam6n15 () Int)
(declare-fun lam6n16 () Int)
(declare-fun lam6n17 () Int)
(declare-fun lam6n18 () Int)
(declare-fun lam6n19 () Int)
(declare-fun lam6n20 () Int)
(declare-fun lam6n21 () Int)
(declare-fun lam6n22 () Int)
(declare-fun lam6n23 () Int)
(declare-fun lam6n24 () Int)
(declare-fun lam6n25 () Int)
(declare-fun lam6n26 () Int)
(declare-fun lam6n27 () Int)
(declare-fun lam6n28 () Int)
(declare-fun a_173^0 () Int)
(declare-fun i_344^0 () Int)
(declare-fun l_157^0 () Int)
(declare-fun undef386 () Int)
(declare-fun rv_13^0 () Int)
(declare-fun undef341 () Int)
(declare-fun undef2463 () Int)
(declare-fun undef2506 () Int)
(declare-fun i_211^0 () Int)
(declare-fun undef607 () Int)
(declare-fun undef2784 () Int)
(declare-fun rv_32^0 () Int)
(declare-fun undef491 () Int)
(declare-fun undef534 () Int)
(declare-fun undef2775 () Int)
(declare-fun undef2818 () Int)
(declare-fun tp_34^0 () Int)
(declare-fun undef337 () Int)
(declare-fun undef344 () Int)
(declare-fun undef488 () Int)
(declare-fun undef500 () Int)
(declare-fun undef2819 () Int)
(declare-fun undef620 () Int)
(declare-fun undef2453 () Int)
(declare-fun undef2499 () Int)
(declare-fun undef2507 () Int)
(declare-fun undef2455 () Int)
(declare-fun undef2508 () Int)
(declare-fun undef2805 () Int)
(declare-fun undef2810 () Int)
(declare-fun undef543 () Int)
(declare-fun undef535 () Int)
(declare-fun lam7n0 () Int)
(declare-fun lam7n1 () Int)
(declare-fun lam7n2 () Int)
(declare-fun lam7n3 () Int)
(declare-fun lam7n4 () Int)
(declare-fun lam7n5 () Int)
(declare-fun lam7n6 () Int)
(declare-fun lam7n7 () Int)
(declare-fun lam7n8 () Int)
(declare-fun lam7n17 () Int)
(declare-fun lam7n18 () Int)
(declare-fun lam7n19 () Int)
(declare-fun lam7n9 () Int)
(declare-fun lam7n10 () Int)
(declare-fun lam7n11 () Int)
(declare-fun lam7n12 () Int)
(declare-fun lam7n13 () Int)
(declare-fun lam7n14 () Int)
(declare-fun lam7n15 () Int)
(declare-fun lam7n16 () Int)
(declare-fun lam8n0 () Int)
(declare-fun lam8n1 () Int)
(declare-fun lam8n2 () Int)
(declare-fun lam8n3 () Int)
(declare-fun lam8n4 () Int)
(declare-fun lam8n5 () Int)
(declare-fun lam8n6 () Int)
(declare-fun lam8n7 () Int)
(declare-fun lam8n8 () Int)
(declare-fun lam8n17 () Int)
(declare-fun lam8n18 () Int)
(declare-fun lam8n19 () Int)
(declare-fun lam8n9 () Int)
(declare-fun lam8n10 () Int)
(declare-fun lam8n11 () Int)
(declare-fun lam8n12 () Int)
(declare-fun lam8n13 () Int)
(declare-fun lam8n14 () Int)
(declare-fun lam8n15 () Int)
(declare-fun lam8n16 () Int)
(assert ( and ( <= ( - 1 ) Nl10a_173^01 ) ( <= Nl10a_173^01 1 ) ( <= ( - 1 ) Nl10h_31^01 ) ( <= Nl10h_31^01 1 ) ( <= ( - 1 ) Nl10i_211^01 ) ( <= Nl10i_211^01 1 ) ( <= ( - 1 ) Nl10i_29^01 ) ( <= Nl10i_29^01 1 ) ( <= ( - 1 ) Nl10i_344^01 ) ( <= Nl10i_344^01 1 ) ( <= ( - 1 ) Nl10l_157^01 ) ( <= Nl10l_157^01 1 ) ( <= ( - 1 ) Nl10l_28^01 ) ( <= Nl10l_28^01 1 ) ( <= ( - 1 ) Nl10rv_13^01 ) ( <= Nl10rv_13^01 1 ) ( <= ( - 1 ) Nl10tp_34^01 ) ( <= Nl10tp_34^01 1 ) ( <= ( - 1 ) Nl10a_173^02 ) ( <= Nl10a_173^02 1 ) ( <= ( - 1 ) Nl10h_31^02 ) ( <= Nl10h_31^02 1 ) ( <= ( - 1 ) Nl10i_211^02 ) ( <= Nl10i_211^02 1 ) ( <= ( - 1 ) Nl10i_29^02 ) ( <= Nl10i_29^02 1 ) ( <= ( - 1 ) Nl10i_344^02 ) ( <= Nl10i_344^02 1 ) ( <= ( - 1 ) Nl10l_157^02 ) ( <= Nl10l_157^02 1 ) ( <= ( - 1 ) Nl10l_28^02 ) ( <= Nl10l_28^02 1 ) ( <= ( - 1 ) Nl10rv_13^02 ) ( <= Nl10rv_13^02 1 ) ( <= ( - 1 ) Nl10tp_34^02 ) ( <= Nl10tp_34^02 1 ) ( <= ( - 1 ) Nl10a_173^03 ) ( <= Nl10a_173^03 1 ) ( <= ( - 1 ) Nl10h_31^03 ) ( <= Nl10h_31^03 1 ) ( <= ( - 1 ) Nl10i_211^03 ) ( <= Nl10i_211^03 1 ) ( <= ( - 1 ) Nl10i_29^03 ) ( <= Nl10i_29^03 1 ) ( <= ( - 1 ) Nl10i_344^03 ) ( <= Nl10i_344^03 1 ) ( <= ( - 1 ) Nl10l_157^03 ) ( <= Nl10l_157^03 1 ) ( <= ( - 1 ) Nl10l_28^03 ) ( <= Nl10l_28^03 1 ) ( <= ( - 1 ) Nl10rv_13^03 ) ( <= Nl10rv_13^03 1 ) ( <= ( - 1 ) Nl10tp_34^03 ) ( <= Nl10tp_34^03 1 ) ))
(assert ( or ( and ( >= lam0n0 0 ) ( >= lam0n1 0 ) ( >= lam0n2 0 ) ( >= lam0n3 0 ) ( >= lam0n4 0 ) ( >= lam0n5 0 ) ( >= lam0n6 0 ) ( >= lam0n7 0 ) ( >= lam0n8 0 ) ( >= lam0n9 0 ) ( >= lam0n18 0 ) ( >= lam0n19 0 ) ( >= lam0n20 0 ) ( > ( + ( * 1 lam0n7 ) ( * 1 lam0n8 ) ( * 2 lam0n9 ) ( * Nl10CT1 lam0n18 ) ( * Nl10CT2 lam0n19 ) ( * Nl10CT3 lam0n20 ) ( - 1 ) ) 0 ) ( = ( + ( * ( - 1 ) lam0n0 ) ( * 1 lam0n10 ) ( * Nl10a_173^01 lam0n18 ) ( * Nl10a_173^02 lam0n19 ) ( * Nl10a_173^03 lam0n20 ) ) 0 ) ( = ( + ( * Nl10h_31^01 lam0n18 ) ( * Nl10h_31^02 lam0n19 ) ( * Nl10h_31^03 lam0n20 ) ) 0 ) ( = ( + ( * ( - 1 ) lam0n7 ) ( * Nl10i_211^01 lam0n18 ) ( * Nl10i_211^02 lam0n19 ) ( * Nl10i_211^03 lam0n20 ) ) 0 ) ( = ( + ( * ( - 1 ) lam0n1 ) ( * 1 lam0n8 ) ( * Nl10i_29^01 lam0n18 ) ( * Nl10i_29^02 lam0n19 ) ( * Nl10i_29^03 lam0n20 ) ) 0 ) ( = ( + ( * 1 lam0n0 ) ( * Nl10i_344^01 lam0n18 ) ( * Nl10i_344^02 lam0n19 ) ( * Nl10i_344^03 lam0n20 ) ) 0 ) ( = ( + ( * ( - 1 ) lam0n0 ) ( * ( - 1 ) lam0n2 ) ( * 1 lam0n11 ) ( * Nl10l_157^01 lam0n18 ) ( * Nl10l_157^02 lam0n19 ) ( * Nl10l_157^03 lam0n20 ) ) 0 ) ( = ( + ( * ( - 1 ) lam0n8 ) ( * Nl10l_28^01 lam0n18 ) ( * Nl10l_28^02 lam0n19 ) ( * Nl10l_28^03 lam0n20 ) ) 0 ) ( = ( + ( * 1 lam0n3 ) ( * 1 lam0n4 ) ( * 1 lam0n5 ) ( * ( - 1 ) lam0n9 ) ( * Nl10rv_13^01 lam0n18 ) ( * Nl10rv_13^02 lam0n19 ) ( * Nl10rv_13^03 lam0n20 ) ) 0 ) ( = ( + ( * 1 lam0n12 ) ( * Nl10tp_34^01 lam0n18 ) ( * Nl10tp_34^02 lam0n19 ) ( * Nl10tp_34^03 lam0n20 ) ) 0 ) ( = ( * 1 lam0n13 ) 0 ) ( = ( * ( - 1 ) lam0n3 ) 0 ) ( = ( * ( - 1 ) lam0n13 ) 0 ) ( = ( * 1 lam0n2 ) 0 ) ( = ( + ( * 1 lam0n14 ) ( * 1 lam0n15 ) ) 0 ) ( = ( * 1 lam0n16 ) 0 ) ( = ( + ( * ( - 1 ) lam0n4 ) ( * ( - 1 ) lam0n6 ) ( * ( - 1 ) lam0n10 ) ( * ( - 1 ) lam0n16 ) ) 0 ) ( = ( * ( - 1 ) lam0n14 ) 0 ) ( = ( * ( - 1 ) lam0n5 ) 0 ) ( = ( + ( * ( - 1 ) lam0n15 ) ( * 1 lam0n17 ) ) 0 ) ( = ( * ( - 1 ) lam0n17 ) 0 ) ( = ( * ( - 1 ) lam0n12 ) 0 ) ) ( and ( >= lam1n0 0 ) ( >= lam1n1 0 ) ( >= lam1n2 0 ) ( >= lam1n3 0 ) ( >= lam1n4 0 ) ( >= lam1n5 0 ) ( >= lam1n6 0 ) ( >= lam1n7 0 ) ( >= lam1n8 0 ) ( >= lam1n9 0 ) ( >= lam1n18 0 ) ( >= lam1n19 0 ) ( >= lam1n20 0 ) ( > ( + ( * 1 lam1n7 ) ( * 1 lam1n8 ) ( * 2 lam1n9 ) ( * Nl10CT1 lam1n18 ) ( * Nl10CT2 lam1n19 ) ( * Nl10CT3 lam1n20 ) ( - 1 ( + ( + ( + Nl10CT1 ( * Nl10h_31^01 0 ) ) ( * Nl10i_29^01 1 ) ) ( * Nl10tp_34^01 0 ) ) ) ) 0 ) ( = ( + ( * ( - 1 ) lam1n0 ) ( * 1 lam1n10 ) ( * Nl10a_173^01 lam1n18 ) ( * Nl10a_173^02 lam1n19 ) ( * Nl10a_173^03 lam1n20 ) ( - ( + 0 Nl10a_173^01 ) ) ) 0 ) ( = ( + ( * Nl10h_31^01 lam1n18 ) ( * Nl10h_31^02 lam1n19 ) ( * Nl10h_31^03 lam1n20 ) ) 0 ) ( = ( + ( * ( - 1 ) lam1n7 ) ( * Nl10i_211^01 lam1n18 ) ( * Nl10i_211^02 lam1n19 ) ( * Nl10i_211^03 lam1n20 ) ( - ( + 0 Nl10i_211^01 ) ) ) 0 ) ( = ( + ( * ( - 1 ) lam1n1 ) ( * 1 lam1n8 ) ( * Nl10i_29^01 lam1n18 ) ( * Nl10i_29^02 lam1n19 ) ( * Nl10i_29^03 lam1n20 ) ( - ( + 0 ( * Nl10i_29^01 1 ) ) ) ) 0 ) ( = ( + ( * 1 lam1n0 ) ( * Nl10i_344^01 lam1n18 ) ( * Nl10i_344^02 lam1n19 ) ( * Nl10i_344^03 lam1n20 ) ( - ( + 0 Nl10i_344^01 ) ) ) 0 ) ( = ( + ( * ( - 1 ) lam1n0 ) ( * ( - 1 ) lam1n2 ) ( * 1 lam1n11 ) ( * Nl10l_157^01 lam1n18 ) ( * Nl10l_157^02 lam1n19 ) ( * Nl10l_157^03 lam1n20 ) ( - ( + 0 Nl10l_157^01 ) ) ) 0 ) ( = ( + ( * ( - 1 ) lam1n8 ) ( * Nl10l_28^01 lam1n18 ) ( * Nl10l_28^02 lam1n19 ) ( * Nl10l_28^03 lam1n20 ) ( - ( + 0 Nl10l_28^01 ) ) ) 0 ) ( = ( + ( * 1 lam1n3 ) ( * 1 lam1n4 ) ( * 1 lam1n5 ) ( * ( - 1 ) lam1n9 ) ( * Nl10rv_13^01 lam1n18 ) ( * Nl10rv_13^02 lam1n19 ) ( * Nl10rv_13^03 lam1n20 ) ( - ( + 0 Nl10rv_13^01 ) ) ) 0 ) ( = ( + ( * 1 lam1n12 ) ( * Nl10tp_34^01 lam1n18 ) ( * Nl10tp_34^02 lam1n19 ) ( * Nl10tp_34^03 lam1n20 ) ) 0 ) ( = ( * 1 lam1n13 ) 0 ) ( = ( * ( - 1 ) lam1n3 ) 0 ) ( = ( * ( - 1 ) lam1n13 ) 0 ) ( = ( * 1 lam1n2 ) 0 ) ( = ( + ( * 1 lam1n14 ) ( * 1 lam1n15 ) ) 0 ) ( = ( * 1 lam1n16 ) 0 ) ( = ( + ( * ( - 1 ) lam1n4 ) ( * ( - 1 ) lam1n6 ) ( * ( - 1 ) lam1n10 ) ( * ( - 1 ) lam1n16 ) ) 0 ) ( = ( * ( - 1 ) lam1n14 ) 0 ) ( = ( * ( - 1 ) lam1n5 ) 0 ) ( = ( + ( * ( - 1 ) lam1n15 ) ( * 1 lam1n17 ) ) 0 ) ( = ( * ( - 1 ) lam1n17 ) 0 ) ( = ( + ( * ( - 1 ) lam1n12 ) ( - ( + 0 ( * Nl10h_31^01 1 ) ) ) ) 0 ) ( = ( - ( + 0 ( * Nl10tp_34^01 1 ) ) ) 0 ) ) ))
(assert ( or ( and ( >= lam0n0 0 ) ( >= lam0n1 0 ) ( >= lam0n2 0 ) ( >= lam0n3 0 ) ( >= lam0n4 0 ) ( >= lam0n5 0 ) ( >= lam0n6 0 ) ( >= lam0n7 0 ) ( >= lam0n8 0 ) ( >= lam0n9 0 ) ( >= lam0n18 0 ) ( >= lam0n19 0 ) ( >= lam0n20 0 ) ( > ( + ( * 1 lam0n7 ) ( * 1 lam0n8 ) ( * 2 lam0n9 ) ( * Nl10CT1 lam0n18 ) ( * Nl10CT2 lam0n19 ) ( * Nl10CT3 lam0n20 ) ( - 1 ) ) 0 ) ( = ( + ( * ( - 1 ) lam0n0 ) ( * 1 lam0n10 ) ( * Nl10a_173^01 lam0n18 ) ( * Nl10a_173^02 lam0n19 ) ( * Nl10a_173^03 lam0n20 ) ) 0 ) ( = ( + ( * Nl10h_31^01 lam0n18 ) ( * Nl10h_31^02 lam0n19 ) ( * Nl10h_31^03 lam0n20 ) ) 0 ) ( = ( + ( * ( - 1 ) lam0n7 ) ( * Nl10i_211^01 lam0n18 ) ( * Nl10i_211^02 lam0n19 ) ( * Nl10i_211^03 lam0n20 ) ) 0 ) ( = ( + ( * ( - 1 ) lam0n1 ) ( * 1 lam0n8 ) ( * Nl10i_29^01 lam0n18 ) ( * Nl10i_29^02 lam0n19 ) ( * Nl10i_29^03 lam0n20 ) ) 0 ) ( = ( + ( * 1 lam0n0 ) ( * Nl10i_344^01 lam0n18 ) ( * Nl10i_344^02 lam0n19 ) ( * Nl10i_344^03 lam0n20 ) ) 0 ) ( = ( + ( * ( - 1 ) lam0n0 ) ( * ( - 1 ) lam0n2 ) ( * 1 lam0n11 ) ( * Nl10l_157^01 lam0n18 ) ( * Nl10l_157^02 lam0n19 ) ( * Nl10l_157^03 lam0n20 ) ) 0 ) ( = ( + ( * ( - 1 ) lam0n8 ) ( * Nl10l_28^01 lam0n18 ) ( * Nl10l_28^02 lam0n19 ) ( * Nl10l_28^03 lam0n20 ) ) 0 ) ( = ( + ( * 1 lam0n3 ) ( * 1 lam0n4 ) ( * 1 lam0n5 ) ( * ( - 1 ) lam0n9 ) ( * Nl10rv_13^01 lam0n18 ) ( * Nl10rv_13^02 lam0n19 ) ( * Nl10rv_13^03 lam0n20 ) ) 0 ) ( = ( + ( * 1 lam0n12 ) ( * Nl10tp_34^01 lam0n18 ) ( * Nl10tp_34^02 lam0n19 ) ( * Nl10tp_34^03 lam0n20 ) ) 0 ) ( = ( * 1 lam0n13 ) 0 ) ( = ( * ( - 1 ) lam0n3 ) 0 ) ( = ( * ( - 1 ) lam0n13 ) 0 ) ( = ( * 1 lam0n2 ) 0 ) ( = ( + ( * 1 lam0n14 ) ( * 1 lam0n15 ) ) 0 ) ( = ( * 1 lam0n16 ) 0 ) ( = ( + ( * ( - 1 ) lam0n4 ) ( * ( - 1 ) lam0n6 ) ( * ( - 1 ) lam0n10 ) ( * ( - 1 ) lam0n16 ) ) 0 ) ( = ( * ( - 1 ) lam0n14 ) 0 ) ( = ( * ( - 1 ) lam0n5 ) 0 ) ( = ( + ( * ( - 1 ) lam0n15 ) ( * 1 lam0n17 ) ) 0 ) ( = ( * ( - 1 ) lam0n17 ) 0 ) ( = ( * ( - 1 ) lam0n12 ) 0 ) ) ( and ( >= lam2n0 0 ) ( >= lam2n1 0 ) ( >= lam2n2 0 ) ( >= lam2n3 0 ) ( >= lam2n4 0 ) ( >= lam2n5 0 ) ( >= lam2n6 0 ) ( >= lam2n7 0 ) ( >= lam2n8 0 ) ( >= lam2n9 0 ) ( >= lam2n18 0 ) ( >= lam2n19 0 ) ( >= lam2n20 0 ) ( > ( + ( * 1 lam2n7 ) ( * 1 lam2n8 ) ( * 2 lam2n9 ) ( * Nl10CT1 lam2n18 ) ( * Nl10CT2 lam2n19 ) ( * Nl10CT3 lam2n20 ) ( - 1 ( + ( + ( + Nl10CT2 ( * Nl10h_31^02 0 ) ) ( * Nl10i_29^02 1 ) ) ( * Nl10tp_34^02 0 ) ) ) ) 0 ) ( = ( + ( * ( - 1 ) lam2n0 ) ( * 1 lam2n10 ) ( * Nl10a_173^01 lam2n18 ) ( * Nl10a_173^02 lam2n19 ) ( * Nl10a_173^03 lam2n20 ) ( - ( + 0 Nl10a_173^02 ) ) ) 0 ) ( = ( + ( * Nl10h_31^01 lam2n18 ) ( * Nl10h_31^02 lam2n19 ) ( * Nl10h_31^03 lam2n20 ) ) 0 ) ( = ( + ( * ( - 1 ) lam2n7 ) ( * Nl10i_211^01 lam2n18 ) ( * Nl10i_211^02 lam2n19 ) ( * Nl10i_211^03 lam2n20 ) ( - ( + 0 Nl10i_211^02 ) ) ) 0 ) ( = ( + ( * ( - 1 ) lam2n1 ) ( * 1 lam2n8 ) ( * Nl10i_29^01 lam2n18 ) ( * Nl10i_29^02 lam2n19 ) ( * Nl10i_29^03 lam2n20 ) ( - ( + 0 ( * Nl10i_29^02 1 ) ) ) ) 0 ) ( = ( + ( * 1 lam2n0 ) ( * Nl10i_344^01 lam2n18 ) ( * Nl10i_344^02 lam2n19 ) ( * Nl10i_344^03 lam2n20 ) ( - ( + 0 Nl10i_344^02 ) ) ) 0 ) ( = ( + ( * ( - 1 ) lam2n0 ) ( * ( - 1 ) lam2n2 ) ( * 1 lam2n11 ) ( * Nl10l_157^01 lam2n18 ) ( * Nl10l_157^02 lam2n19 ) ( * Nl10l_157^03 lam2n20 ) ( - ( + 0 Nl10l_157^02 ) ) ) 0 ) ( = ( + ( * ( - 1 ) lam2n8 ) ( * Nl10l_28^01 lam2n18 ) ( * Nl10l_28^02 lam2n19 ) ( * Nl10l_28^03 lam2n20 ) ( - ( + 0 Nl10l_28^02 ) ) ) 0 ) ( = ( + ( * 1 lam2n3 ) ( * 1 lam2n4 ) ( * 1 lam2n5 ) ( * ( - 1 ) lam2n9 ) ( * Nl10rv_13^01 lam2n18 ) ( * Nl10rv_13^02 lam2n19 ) ( * Nl10rv_13^03 lam2n20 ) ( - ( + 0 Nl10rv_13^02 ) ) ) 0 ) ( = ( + ( * 1 lam2n12 ) ( * Nl10tp_34^01 lam2n18 ) ( * Nl10tp_34^02 lam2n19 ) ( * Nl10tp_34^03 lam2n20 ) ) 0 ) ( = ( * 1 lam2n13 ) 0 ) ( = ( * ( - 1 ) lam2n3 ) 0 ) ( = ( * ( - 1 ) lam2n13 ) 0 ) ( = ( * 1 lam2n2 ) 0 ) ( = ( + ( * 1 lam2n14 ) ( * 1 lam2n15 ) ) 0 ) ( = ( * 1 lam2n16 ) 0 ) ( = ( + ( * ( - 1 ) lam2n4 ) ( * ( - 1 ) lam2n6 ) ( * ( - 1 ) lam2n10 ) ( * ( - 1 ) lam2n16 ) ) 0 ) ( = ( * ( - 1 ) lam2n14 ) 0 ) ( = ( * ( - 1 ) lam2n5 ) 0 ) ( = ( + ( * ( - 1 ) lam2n15 ) ( * 1 lam2n17 ) ) 0 ) ( = ( * ( - 1 ) lam2n17 ) 0 ) ( = ( + ( * ( - 1 ) lam2n12 ) ( - ( + 0 ( * Nl10h_31^02 1 ) ) ) ) 0 ) ( = ( - ( + 0 ( * Nl10tp_34^02 1 ) ) ) 0 ) ) ))
(assert ( or ( and ( >= lam0n0 0 ) ( >= lam0n1 0 ) ( >= lam0n2 0 ) ( >= lam0n3 0 ) ( >= lam0n4 0 ) ( >= lam0n5 0 ) ( >= lam0n6 0 ) ( >= lam0n7 0 ) ( >= lam0n8 0 ) ( >= lam0n9 0 ) ( >= lam0n18 0 ) ( >= lam0n19 0 ) ( >= lam0n20 0 ) ( > ( + ( * 1 lam0n7 ) ( * 1 lam0n8 ) ( * 2 lam0n9 ) ( * Nl10CT1 lam0n18 ) ( * Nl10CT2 lam0n19 ) ( * Nl10CT3 lam0n20 ) ( - 1 ) ) 0 ) ( = ( + ( * ( - 1 ) lam0n0 ) ( * 1 lam0n10 ) ( * Nl10a_173^01 lam0n18 ) ( * Nl10a_173^02 lam0n19 ) ( * Nl10a_173^03 lam0n20 ) ) 0 ) ( = ( + ( * Nl10h_31^01 lam0n18 ) ( * Nl10h_31^02 lam0n19 ) ( * Nl10h_31^03 lam0n20 ) ) 0 ) ( = ( + ( * ( - 1 ) lam0n7 ) ( * Nl10i_211^01 lam0n18 ) ( * Nl10i_211^02 lam0n19 ) ( * Nl10i_211^03 lam0n20 ) ) 0 ) ( = ( + ( * ( - 1 ) lam0n1 ) ( * 1 lam0n8 ) ( * Nl10i_29^01 lam0n18 ) ( * Nl10i_29^02 lam0n19 ) ( * Nl10i_29^03 lam0n20 ) ) 0 ) ( = ( + ( * 1 lam0n0 ) ( * Nl10i_344^01 lam0n18 ) ( * Nl10i_344^02 lam0n19 ) ( * Nl10i_344^03 lam0n20 ) ) 0 ) ( = ( + ( * ( - 1 ) lam0n0 ) ( * ( - 1 ) lam0n2 ) ( * 1 lam0n11 ) ( * Nl10l_157^01 lam0n18 ) ( * Nl10l_157^02 lam0n19 ) ( * Nl10l_157^03 lam0n20 ) ) 0 ) ( = ( + ( * ( - 1 ) lam0n8 ) ( * Nl10l_28^01 lam0n18 ) ( * Nl10l_28^02 lam0n19 ) ( * Nl10l_28^03 lam0n20 ) ) 0 ) ( = ( + ( * 1 lam0n3 ) ( * 1 lam0n4 ) ( * 1 lam0n5 ) ( * ( - 1 ) lam0n9 ) ( * Nl10rv_13^01 lam0n18 ) ( * Nl10rv_13^02 lam0n19 ) ( * Nl10rv_13^03 lam0n20 ) ) 0 ) ( = ( + ( * 1 lam0n12 ) ( * Nl10tp_34^01 lam0n18 ) ( * Nl10tp_34^02 lam0n19 ) ( * Nl10tp_34^03 lam0n20 ) ) 0 ) ( = ( * 1 lam0n13 ) 0 ) ( = ( * ( - 1 ) lam0n3 ) 0 ) ( = ( * ( - 1 ) lam0n13 ) 0 ) ( = ( * 1 lam0n2 ) 0 ) ( = ( + ( * 1 lam0n14 ) ( * 1 lam0n15 ) ) 0 ) ( = ( * 1 lam0n16 ) 0 ) ( = ( + ( * ( - 1 ) lam0n4 ) ( * ( - 1 ) lam0n6 ) ( * ( - 1 ) lam0n10 ) ( * ( - 1 ) lam0n16 ) ) 0 ) ( = ( * ( - 1 ) lam0n14 ) 0 ) ( = ( * ( - 1 ) lam0n5 ) 0 ) ( = ( + ( * ( - 1 ) lam0n15 ) ( * 1 lam0n17 ) ) 0 ) ( = ( * ( - 1 ) lam0n17 ) 0 ) ( = ( * ( - 1 ) lam0n12 ) 0 ) ) ( and ( >= lam3n0 0 ) ( >= lam3n1 0 ) ( >= lam3n2 0 ) ( >= lam3n3 0 ) ( >= lam3n4 0 ) ( >= lam3n5 0 ) ( >= lam3n6 0 ) ( >= lam3n7 0 ) ( >= lam3n8 0 ) ( >= lam3n9 0 ) ( >= lam3n18 0 ) ( >= lam3n19 0 ) ( >= lam3n20 0 ) ( > ( + ( * 1 lam3n7 ) ( * 1 lam3n8 ) ( * 2 lam3n9 ) ( * Nl10CT1 lam3n18 ) ( * Nl10CT2 lam3n19 ) ( * Nl10CT3 lam3n20 ) ( - 1 ( + ( + ( + Nl10CT3 ( * Nl10h_31^03 0 ) ) ( * Nl10i_29^03 1 ) ) ( * Nl10tp_34^03 0 ) ) ) ) 0 ) ( = ( + ( * ( - 1 ) lam3n0 ) ( * 1 lam3n10 ) ( * Nl10a_173^01 lam3n18 ) ( * Nl10a_173^02 lam3n19 ) ( * Nl10a_173^03 lam3n20 ) ( - ( + 0 Nl10a_173^03 ) ) ) 0 ) ( = ( + ( * Nl10h_31^01 lam3n18 ) ( * Nl10h_31^02 lam3n19 ) ( * Nl10h_31^03 lam3n20 ) ) 0 ) ( = ( + ( * ( - 1 ) lam3n7 ) ( * Nl10i_211^01 lam3n18 ) ( * Nl10i_211^02 lam3n19 ) ( * Nl10i_211^03 lam3n20 ) ( - ( + 0 Nl10i_211^03 ) ) ) 0 ) ( = ( + ( * ( - 1 ) lam3n1 ) ( * 1 lam3n8 ) ( * Nl10i_29^01 lam3n18 ) ( * Nl10i_29^02 lam3n19 ) ( * Nl10i_29^03 lam3n20 ) ( - ( + 0 ( * Nl10i_29^03 1 ) ) ) ) 0 ) ( = ( + ( * 1 lam3n0 ) ( * Nl10i_344^01 lam3n18 ) ( * Nl10i_344^02 lam3n19 ) ( * Nl10i_344^03 lam3n20 ) ( - ( + 0 Nl10i_344^03 ) ) ) 0 ) ( = ( + ( * ( - 1 ) lam3n0 ) ( * ( - 1 ) lam3n2 ) ( * 1 lam3n11 ) ( * Nl10l_157^01 lam3n18 ) ( * Nl10l_157^02 lam3n19 ) ( * Nl10l_157^03 lam3n20 ) ( - ( + 0 Nl10l_157^03 ) ) ) 0 ) ( = ( + ( * ( - 1 ) lam3n8 ) ( * Nl10l_28^01 lam3n18 ) ( * Nl10l_28^02 lam3n19 ) ( * Nl10l_28^03 lam3n20 ) ( - ( + 0 Nl10l_28^03 ) ) ) 0 ) ( = ( + ( * 1 lam3n3 ) ( * 1 lam3n4 ) ( * 1 lam3n5 ) ( * ( - 1 ) lam3n9 ) ( * Nl10rv_13^01 lam3n18 ) ( * Nl10rv_13^02 lam3n19 ) ( * Nl10rv_13^03 lam3n20 ) ( - ( + 0 Nl10rv_13^03 ) ) ) 0 ) ( = ( + ( * 1 lam3n12 ) ( * Nl10tp_34^01 lam3n18 ) ( * Nl10tp_34^02 lam3n19 ) ( * Nl10tp_34^03 lam3n20 ) ) 0 ) ( = ( * 1 lam3n13 ) 0 ) ( = ( * ( - 1 ) lam3n3 ) 0 ) ( = ( * ( - 1 ) lam3n13 ) 0 ) ( = ( * 1 lam3n2 ) 0 ) ( = ( + ( * 1 lam3n14 ) ( * 1 lam3n15 ) ) 0 ) ( = ( * 1 lam3n16 ) 0 ) ( = ( + ( * ( - 1 ) lam3n4 ) ( * ( - 1 ) lam3n6 ) ( * ( - 1 ) lam3n10 ) ( * ( - 1 ) lam3n16 ) ) 0 ) ( = ( * ( - 1 ) lam3n14 ) 0 ) ( = ( * ( - 1 ) lam3n5 ) 0 ) ( = ( + ( * ( - 1 ) lam3n15 ) ( * 1 lam3n17 ) ) 0 ) ( = ( * ( - 1 ) lam3n17 ) 0 ) ( = ( + ( * ( - 1 ) lam3n12 ) ( - ( + 0 ( * Nl10h_31^03 1 ) ) ) ) 0 ) ( = ( - ( + 0 ( * Nl10tp_34^03 1 ) ) ) 0 ) ) ))
(assert ( and ( <= ( + ( * ( - 1 ) a_173^0 ) i_344^0 ( * ( - 1 ) l_157^0 ) ) 0 ) ( not ( <= ( + 1 l_157^0 ( * ( - 1 ) undef386 ) ) 0 ) ) ( <= ( + rv_13^0 ( * ( - 1 ) undef341 ) ) 0 ) ( <= ( + rv_13^0 ( * ( - 1 ) undef2463 ) ) 0 ) ( <= ( + rv_13^0 ( * ( - 1 ) undef2506 ) ) 0 ) ( <= ( * ( - 1 ) undef2463 ) 0 ) ( <= ( + 1 ( * ( - 1 ) i_211^0 ) ) 0 ) ( <= ( + 1 ( * ( - 1 ) undef607 ) undef2784 ) 0 ) ( <= ( + 2 ( * ( - 1 ) rv_13^0 ) ) 0 ) ( <= ( + 2 ( * ( - 1 ) undef607 ) ) 0 ) ( = ( + a_173^0 ( * ( - 1 ) undef2463 ) ) 0 ) ( = l_157^0 0 ) ( = ( + rv_13^0 ( * ( - 1 ) undef607 ) ) 0 ) ( = ( + ( * ( - 1 ) rv_32^0 ) undef491 ) 0 ) ( = ( + rv_32^0 ( * ( - 1 ) undef534 ) ) 0 ) ( = ( + ( * ( - 1 ) rv_32^0 ) undef2775 ) 0 ) ( = ( + rv_32^0 ( * ( - 1 ) undef2818 ) ) 0 ) ( = ( + tp_34^0 ( * ( - 1 ) undef2818 ) ) 0 ) ( = ( + undef337 ( * ( - 1 ) undef344 ) ) 0 ) ( = ( + undef488 ( * ( - 1 ) undef500 ) ) 0 ) ( = ( + undef491 ( * ( - 1 ) undef534 ) ) 0 ) ( = ( + undef534 ( * ( - 1 ) undef2819 ) ) 0 ) ( = ( + undef607 ( * ( - 1 ) undef620 ) ) 0 ) ( = ( + undef2453 ( * ( - 1 ) undef2499 ) ) 0 ) ( = ( + undef2453 ( * ( - 1 ) undef2507 ) ) 0 ) ( = ( + undef2455 ( * ( - 1 ) undef2463 ) ) 0 ) ( = ( + undef2507 ( * ( - 1 ) undef2508 ) ) 0 ) ( = ( + undef2775 ( * ( - 1 ) undef2818 ) ) 0 ) ( = ( + undef2805 ( * ( - 1 ) undef2810 ) ) 0 ) ( = ( + ( - 1 ) undef543 ( * ( - 1 ) undef2784 ) ) 0 ) ( = ( + ( - 1 ) undef2784 ) 0 ) ( = ( + 2 ( * ( - 1 ) undef488 ) ) 0 ) ( = ( + 2 ( * ( - 1 ) undef500 ) ) 0 ) ( <= ( + ( + ( + ( + ( + Nl10CT1 ( * Nl10h_31^01 0 ) ) ( * Nl10i_29^01 0 ) ) ( * Nl10l_28^01 0 ) ) ( * Nl10tp_34^01 0 ) ) ( * ( + 0 Nl10a_173^01 ) a_173^0 ) ( * ( + 0 Nl10i_211^01 ) i_211^0 ) ( * ( + 0 Nl10i_344^01 ) i_344^0 ) ( * ( + 0 Nl10l_157^01 ) l_157^0 ) ( * ( + 0 Nl10rv_13^01 ) rv_13^0 ) ( * ( + 0 ( * Nl10h_31^01 1 ) ) undef491 ) ( * ( + 0 ( * Nl10i_29^01 1 ) ) undef500 ) ( * ( + 0 ( * Nl10tp_34^01 1 ) ) undef535 ) ( * ( + 0 ( * Nl10l_28^01 1 ) ) undef607 ) ) 0 ) ( <= ( + ( + ( + ( + ( + Nl10CT2 ( * Nl10h_31^02 0 ) ) ( * Nl10i_29^02 0 ) ) ( * Nl10l_28^02 0 ) ) ( * Nl10tp_34^02 0 ) ) ( * ( + 0 Nl10a_173^02 ) a_173^0 ) ( * ( + 0 Nl10i_211^02 ) i_211^0 ) ( * ( + 0 Nl10i_344^02 ) i_344^0 ) ( * ( + 0 Nl10l_157^02 ) l_157^0 ) ( * ( + 0 Nl10rv_13^02 ) rv_13^0 ) ( * ( + 0 ( * Nl10h_31^02 1 ) ) undef491 ) ( * ( + 0 ( * Nl10i_29^02 1 ) ) undef500 ) ( * ( + 0 ( * Nl10tp_34^02 1 ) ) undef535 ) ( * ( + 0 ( * Nl10l_28^02 1 ) ) undef607 ) ) 0 ) ( <= ( + ( + ( + ( + ( + Nl10CT3 ( * Nl10h_31^03 0 ) ) ( * Nl10i_29^03 0 ) ) ( * Nl10l_28^03 0 ) ) ( * Nl10tp_34^03 0 ) ) ( * ( + 0 Nl10a_173^03 ) a_173^0 ) ( * ( + 0 Nl10i_211^03 ) i_211^0 ) ( * ( + 0 Nl10i_344^03 ) i_344^0 ) ( * ( + 0 Nl10l_157^03 ) l_157^0 ) ( * ( + 0 Nl10rv_13^03 ) rv_13^0 ) ( * ( + 0 ( * Nl10h_31^03 1 ) ) undef491 ) ( * ( + 0 ( * Nl10i_29^03 1 ) ) undef500 ) ( * ( + 0 ( * Nl10tp_34^03 1 ) ) undef535 ) ( * ( + 0 ( * Nl10l_28^03 1 ) ) undef607 ) ) 0 ) ))
(assert ( or ( or ( and ( >= lam7n0 0 ) ( >= lam7n1 0 ) ( >= lam7n2 0 ) ( >= lam7n3 0 ) ( >= lam7n4 0 ) ( >= lam7n5 0 ) ( >= lam7n6 0 ) ( >= lam7n7 0 ) ( >= lam7n8 0 ) ( >= lam7n17 0 ) ( >= lam7n18 0 ) ( >= lam7n19 0 ) ( > ( + ( * 1 lam7n7 ) ( * 2 lam7n8 ) ( * Nl10CT1 lam7n17 ) ( * Nl10CT2 lam7n18 ) ( * Nl10CT3 lam7n19 ) ( - 1 ) ) 0 ) ( = ( + ( * ( - 1 ) lam7n0 ) ( * 1 lam7n9 ) ( * Nl10a_173^01 lam7n17 ) ( * Nl10a_173^02 lam7n18 ) ( * Nl10a_173^03 lam7n19 ) ) 0 ) ( = ( + ( * 1 lam7n10 ) ( * Nl10h_31^01 lam7n17 ) ( * Nl10h_31^02 lam7n18 ) ( * Nl10h_31^03 lam7n19 ) ) 0 ) ( = ( + ( * ( - 1 ) lam7n7 ) ( * Nl10i_211^01 lam7n17 ) ( * Nl10i_211^02 lam7n18 ) ( * Nl10i_211^03 lam7n19 ) ) 0 ) ( = ( + ( * ( - 1 ) lam7n1 ) ( * ( - 1 ) lam7n2 ) ( * Nl10i_29^01 lam7n17 ) ( * Nl10i_29^02 lam7n18 ) ( * Nl10i_29^03 lam7n19 ) ) 0 ) ( = ( + ( * 1 lam7n0 ) ( * Nl10i_344^01 lam7n17 ) ( * Nl10i_344^02 lam7n18 ) ( * Nl10i_344^03 lam7n19 ) ) 0 ) ( = ( + ( * ( - 1 ) lam7n0 ) ( * 1 lam7n11 ) ( * Nl10l_157^01 lam7n17 ) ( * Nl10l_157^02 lam7n18 ) ( * Nl10l_157^03 lam7n19 ) ) 0 ) ( = ( + ( * 1 lam7n2 ) ( * Nl10l_28^01 lam7n17 ) ( * Nl10l_28^02 lam7n18 ) ( * Nl10l_28^03 lam7n19 ) ) 0 ) ( = ( + ( * 1 lam7n3 ) ( * 1 lam7n4 ) ( * 1 lam7n5 ) ( * ( - 1 ) lam7n8 ) ( * Nl10rv_13^01 lam7n17 ) ( * Nl10rv_13^02 lam7n18 ) ( * Nl10rv_13^03 lam7n19 ) ) 0 ) ( = ( + ( * Nl10tp_34^01 lam7n17 ) ( * Nl10tp_34^02 lam7n18 ) ( * Nl10tp_34^03 lam7n19 ) ) 0 ) ( = ( * 1 lam7n12 ) 0 ) ( = ( * ( - 1 ) lam7n3 ) 0 ) ( = ( * ( - 1 ) lam7n12 ) 0 ) ( = ( + ( * 1 lam7n13 ) ( * 1 lam7n14 ) ) 0 ) ( = ( * 1 lam7n15 ) 0 ) ( = ( + ( * ( - 1 ) lam7n4 ) ( * ( - 1 ) lam7n6 ) ( * ( - 1 ) lam7n9 ) ( * ( - 1 ) lam7n15 ) ) 0 ) ( = ( * ( - 1 ) lam7n13 ) 0 ) ( = ( * ( - 1 ) lam7n5 ) 0 ) ( = ( + ( * ( - 1 ) lam7n14 ) ( * 1 lam7n16 ) ) 0 ) ( = ( + ( * ( - 1 ) lam7n10 ) ( * ( - 1 ) lam7n16 ) ) 0 ) ) ( and ( >= lam8n0 0 ) ( >= lam8n1 0 ) ( >= lam8n2 0 ) ( >= lam8n3 0 ) ( >= lam8n4 0 ) ( >= lam8n5 0 ) ( >= lam8n6 0 ) ( >= lam8n7 0 ) ( >= lam8n8 0 ) ( >= lam8n17 0 ) ( >= lam8n18 0 ) ( >= lam8n19 0 ) ( > ( + ( * 1 lam8n7 ) ( * 2 lam8n8 ) ( * Nl10CT1 lam8n17 ) ( * Nl10CT2 lam8n18 ) ( * Nl10CT3 lam8n19 ) ) 0 ) ( = ( + ( * ( - 1 ) lam8n0 ) ( * 1 lam8n9 ) ( * Nl10a_173^01 lam8n17 ) ( * Nl10a_173^02 lam8n18 ) ( * Nl10a_173^03 lam8n19 ) ) 0 ) ( = ( + ( * 1 lam8n10 ) ( * Nl10h_31^01 lam8n17 ) ( * Nl10h_31^02 lam8n18 ) ( * Nl10h_31^03 lam8n19 ) ) 0 ) ( = ( + ( * ( - 1 ) lam8n7 ) ( * Nl10i_211^01 lam8n17 ) ( * Nl10i_211^02 lam8n18 ) ( * Nl10i_211^03 lam8n19 ) ) 0 ) ( = ( + ( * ( - 1 ) lam8n1 ) ( * ( - 1 ) lam8n2 ) ( * Nl10i_29^01 lam8n17 ) ( * Nl10i_29^02 lam8n18 ) ( * Nl10i_29^03 lam8n19 ) ) 0 ) ( = ( + ( * 1 lam8n0 ) ( * Nl10i_344^01 lam8n17 ) ( * Nl10i_344^02 lam8n18 ) ( * Nl10i_344^03 lam8n19 ) ) 0 ) ( = ( + ( * ( - 1 ) lam8n0 ) ( * 1 lam8n11 ) ( * Nl10l_157^01 lam8n17 ) ( * Nl10l_157^02 lam8n18 ) ( * Nl10l_157^03 lam8n19 ) ( - 1 ) ) 0 ) ( = ( + ( * 1 lam8n2 ) ( * Nl10l_28^01 lam8n17 ) ( * Nl10l_28^02 lam8n18 ) ( * Nl10l_28^03 lam8n19 ) ) 0 ) ( = ( + ( * 1 lam8n3 ) ( * 1 lam8n4 ) ( * 1 lam8n5 ) ( * ( - 1 ) lam8n8 ) ( * Nl10rv_13^01 lam8n17 ) ( * Nl10rv_13^02 lam8n18 ) ( * Nl10rv_13^03 lam8n19 ) ) 0 ) ( = ( + ( * Nl10tp_34^01 lam8n17 ) ( * Nl10tp_34^02 lam8n18 ) ( * Nl10tp_34^03 lam8n19 ) ) 0 ) ( = ( * 1 lam8n12 ) 0 ) ( = ( * ( - 1 ) lam8n3 ) 0 ) ( = ( * ( - 1 ) lam8n12 ) 0 ) ( = 1 0 ) ( = ( + ( * 1 lam8n13 ) ( * 1 lam8n14 ) ) 0 ) ( = ( * 1 lam8n15 ) 0 ) ( = ( + ( * ( - 1 ) lam8n4 ) ( * ( - 1 ) lam8n6 ) ( * ( - 1 ) lam8n9 ) ( * ( - 1 ) lam8n15 ) ) 0 ) ( = ( * ( - 1 ) lam8n13 ) 0 ) ( = ( * ( - 1 ) lam8n5 ) 0 ) ( = ( + ( * ( - 1 ) lam8n14 ) ( * 1 lam8n16 ) ) 0 ) ( = ( + ( * ( - 1 ) lam8n10 ) ( * ( - 1 ) lam8n16 ) ) 0 ) ) ) ( and ( and ( <= ( + ( * ( - 1 ) a_173^0 ) i_344^0 ( * ( - 1 ) l_157^0 ) ) 0 ) ( not ( <= ( + 1 l_157^0 ( * ( - 1 ) undef386 ) ) 0 ) ) ( <= ( + rv_13^0 ( * ( - 1 ) undef341 ) ) 0 ) ( <= ( + rv_13^0 ( * ( - 1 ) undef2463 ) ) 0 ) ( <= ( + rv_13^0 ( * ( - 1 ) undef2506 ) ) 0 ) ( <= ( * ( - 1 ) undef2463 ) 0 ) ( <= ( + 1 ( * ( - 1 ) i_211^0 ) ) 0 ) ( <= ( + 1 ( * ( - 1 ) undef607 ) undef2784 ) 0 ) ( <= ( + 2 ( * ( - 1 ) rv_13^0 ) ) 0 ) ( <= ( + 2 ( * ( - 1 ) undef607 ) ) 0 ) ( = ( + a_173^0 ( * ( - 1 ) undef2463 ) ) 0 ) ( = l_157^0 0 ) ( = ( + rv_13^0 ( * ( - 1 ) undef607 ) ) 0 ) ( = ( + ( * ( - 1 ) rv_32^0 ) undef491 ) 0 ) ( = ( + rv_32^0 ( * ( - 1 ) undef534 ) ) 0 ) ( = ( + ( * ( - 1 ) rv_32^0 ) undef2775 ) 0 ) ( = ( + rv_32^0 ( * ( - 1 ) undef2818 ) ) 0 ) ( = ( + tp_34^0 ( * ( - 1 ) undef2818 ) ) 0 ) ( = ( + undef337 ( * ( - 1 ) undef344 ) ) 0 ) ( = ( + undef488 ( * ( - 1 ) undef500 ) ) 0 ) ( = ( + undef491 ( * ( - 1 ) undef534 ) ) 0 ) ( = ( + undef534 ( * ( - 1 ) undef2819 ) ) 0 ) ( = ( + undef607 ( * ( - 1 ) undef620 ) ) 0 ) ( = ( + undef2453 ( * ( - 1 ) undef2499 ) ) 0 ) ( = ( + undef2453 ( * ( - 1 ) undef2507 ) ) 0 ) ( = ( + undef2455 ( * ( - 1 ) undef2463 ) ) 0 ) ( = ( + undef2507 ( * ( - 1 ) undef2508 ) ) 0 ) ( = ( + undef2775 ( * ( - 1 ) undef2818 ) ) 0 ) ( = ( + undef2805 ( * ( - 1 ) undef2810 ) ) 0 ) ( = ( + ( - 1 ) undef543 ( * ( - 1 ) undef2784 ) ) 0 ) ( = ( + ( - 1 ) undef2784 ) 0 ) ( = ( + 2 ( * ( - 1 ) undef488 ) ) 0 ) ( = ( + 2 ( * ( - 1 ) undef500 ) ) 0 ) ( <= ( + ( + ( + ( + ( + Nl10CT1 ( * Nl10h_31^01 0 ) ) ( * Nl10i_29^01 0 ) ) ( * Nl10l_28^01 0 ) ) ( * Nl10tp_34^01 0 ) ) ( * ( + 0 Nl10a_173^01 ) a_173^0 ) ( * ( + 0 Nl10i_211^01 ) i_211^0 ) ( * ( + 0 Nl10i_344^01 ) i_344^0 ) ( * ( + 0 Nl10l_157^01 ) l_157^0 ) ( * ( + 0 Nl10rv_13^01 ) rv_13^0 ) ( * ( + 0 ( * Nl10h_31^01 1 ) ) undef491 ) ( * ( + 0 ( * Nl10i_29^01 1 ) ) undef500 ) ( * ( + 0 ( * Nl10tp_34^01 1 ) ) undef535 ) ( * ( + 0 ( * Nl10l_28^01 1 ) ) undef607 ) ) 0 ) ( <= ( + ( + ( + ( + ( + Nl10CT2 ( * Nl10h_31^02 0 ) ) ( * Nl10i_29^02 0 ) ) ( * Nl10l_28^02 0 ) ) ( * Nl10tp_34^02 0 ) ) ( * ( + 0 Nl10a_173^02 ) a_173^0 ) ( * ( + 0 Nl10i_211^02 ) i_211^0 ) ( * ( + 0 Nl10i_344^02 ) i_344^0 ) ( * ( + 0 Nl10l_157^02 ) l_157^0 ) ( * ( + 0 Nl10rv_13^02 ) rv_13^0 ) ( * ( + 0 ( * Nl10h_31^02 1 ) ) undef491 ) ( * ( + 0 ( * Nl10i_29^02 1 ) ) undef500 ) ( * ( + 0 ( * Nl10tp_34^02 1 ) ) undef535 ) ( * ( + 0 ( * Nl10l_28^02 1 ) ) undef607 ) ) 0 ) ( <= ( + ( + ( + ( + ( + Nl10CT3 ( * Nl10h_31^03 0 ) ) ( * Nl10i_29^03 0 ) ) ( * Nl10l_28^03 0 ) ) ( * Nl10tp_34^03 0 ) ) ( * ( + 0 Nl10a_173^03 ) a_173^0 ) ( * ( + 0 Nl10i_211^03 ) i_211^0 ) ( * ( + 0 Nl10i_344^03 ) i_344^0 ) ( * ( + 0 Nl10l_157^03 ) l_157^0 ) ( * ( + 0 Nl10rv_13^03 ) rv_13^0 ) ( * ( + 0 ( * Nl10h_31^03 1 ) ) undef491 ) ( * ( + 0 ( * Nl10i_29^03 1 ) ) undef500 ) ( * ( + 0 ( * Nl10tp_34^03 1 ) ) undef535 ) ( * ( + 0 ( * Nl10l_28^03 1 ) ) undef607 ) ) 0 ) ) ( and ( >= lam0n0 0 ) ( >= lam0n1 0 ) ( >= lam0n2 0 ) ( >= lam0n3 0 ) ( >= lam0n4 0 ) ( >= lam0n5 0 ) ( >= lam0n6 0 ) ( >= lam0n7 0 ) ( >= lam0n8 0 ) ( >= lam0n9 0 ) ( >= lam0n18 0 ) ( >= lam0n19 0 ) ( >= lam0n20 0 ) ( > ( + ( * 1 lam0n7 ) ( * 1 lam0n8 ) ( * 2 lam0n9 ) ( * Nl10CT1 lam0n18 ) ( * Nl10CT2 lam0n19 ) ( * Nl10CT3 lam0n20 ) ( - 1 ) ) 0 ) ( = ( + ( * ( - 1 ) lam0n0 ) ( * 1 lam0n10 ) ( * Nl10a_173^01 lam0n18 ) ( * Nl10a_173^02 lam0n19 ) ( * Nl10a_173^03 lam0n20 ) ) 0 ) ( = ( + ( * Nl10h_31^01 lam0n18 ) ( * Nl10h_31^02 lam0n19 ) ( * Nl10h_31^03 lam0n20 ) ) 0 ) ( = ( + ( * ( - 1 ) lam0n7 ) ( * Nl10i_211^01 lam0n18 ) ( * Nl10i_211^02 lam0n19 ) ( * Nl10i_211^03 lam0n20 ) ) 0 ) ( = ( + ( * ( - 1 ) lam0n1 ) ( * 1 lam0n8 ) ( * Nl10i_29^01 lam0n18 ) ( * Nl10i_29^02 lam0n19 ) ( * Nl10i_29^03 lam0n20 ) ) 0 ) ( = ( + ( * 1 lam0n0 ) ( * Nl10i_344^01 lam0n18 ) ( * Nl10i_344^02 lam0n19 ) ( * Nl10i_344^03 lam0n20 ) ) 0 ) ( = ( + ( * ( - 1 ) lam0n0 ) ( * ( - 1 ) lam0n2 ) ( * 1 lam0n11 ) ( * Nl10l_157^01 lam0n18 ) ( * Nl10l_157^02 lam0n19 ) ( * Nl10l_157^03 lam0n20 ) ) 0 ) ( = ( + ( * ( - 1 ) lam0n8 ) ( * Nl10l_28^01 lam0n18 ) ( * Nl10l_28^02 lam0n19 ) ( * Nl10l_28^03 lam0n20 ) ) 0 ) ( = ( + ( * 1 lam0n3 ) ( * 1 lam0n4 ) ( * 1 lam0n5 ) ( * ( - 1 ) lam0n9 ) ( * Nl10rv_13^01 lam0n18 ) ( * Nl10rv_13^02 lam0n19 ) ( * Nl10rv_13^03 lam0n20 ) ) 0 ) ( = ( + ( * 1 lam0n12 ) ( * Nl10tp_34^01 lam0n18 ) ( * Nl10tp_34^02 lam0n19 ) ( * Nl10tp_34^03 lam0n20 ) ) 0 ) ( = ( * 1 lam0n13 ) 0 ) ( = ( * ( - 1 ) lam0n3 ) 0 ) ( = ( * ( - 1 ) lam0n13 ) 0 ) ( = ( * 1 lam0n2 ) 0 ) ( = ( + ( * 1 lam0n14 ) ( * 1 lam0n15 ) ) 0 ) ( = ( * 1 lam0n16 ) 0 ) ( = ( + ( * ( - 1 ) lam0n4 ) ( * ( - 1 ) lam0n6 ) ( * ( - 1 ) lam0n10 ) ( * ( - 1 ) lam0n16 ) ) 0 ) ( = ( * ( - 1 ) lam0n14 ) 0 ) ( = ( * ( - 1 ) lam0n5 ) 0 ) ( = ( + ( * ( - 1 ) lam0n15 ) ( * 1 lam0n17 ) ) 0 ) ( = ( * ( - 1 ) lam0n17 ) 0 ) ( = ( * ( - 1 ) lam0n12 ) 0 ) ) ) ))
(check-sat)
(exit)
